p tw 35 41
1 2
2 13
3 4
4 5
5 6
6 7
7 8
7 14
8 9
9 10
10 11
11 12
12 28
13 24
13 30
14 15
15 16
15 28
16 17
17 18
17 22
18 19
19 20
20 21
21 22
21 28
22 23
23 25
24 30
24 32
25 26
26 27
27 28
28 29
30 31
31 28
32 33
33 34
34 35
35 3
35 28
